# Solution for model mip_queue_model
# Objective value = 76
q[0,0,0] 1
q[0,0,1] 3
q[0,0,2] 0
q[0,0,3] 0
q[0,0,4] 0
q[0,0,5] 0
q[0,0,6] 0
q[0,0,7] 0
q[0,0,8] 0
q[0,0,9] 0
q[0,1,0] 2
q[0,1,1] 1
q[0,1,2] 1
q[0,1,3] 0
q[0,1,4] 0
q[0,1,5] 0
q[0,1,6] 0
q[0,1,7] 0
q[0,1,8] 0
q[0,1,9] 0
q[1,0,0] 1
q[1,0,1] 3
q[1,0,2] 0
q[1,0,3] 0
q[1,0,4] 0
q[1,0,5] 0
q[1,0,6] 0
q[1,0,7] 0
q[1,0,8] 0
q[1,0,9] 0
q[1,1,0] 4
q[1,1,1] 1
q[1,1,2] 1
q[1,1,3] 0
q[1,1,4] 0
q[1,1,5] 0
q[1,1,6] 0
q[1,1,7] 0
q[1,1,8] 0
q[1,1,9] 0
q[2,0,0] 1
q[2,0,1] 3
q[2,0,2] 0
q[2,0,3] 0
q[2,0,4] 0
q[2,0,5] 0
q[2,0,6] 0
q[2,0,7] 0
q[2,0,8] 0
q[2,0,9] 0
q[2,1,0] 2
q[2,1,1] 1
q[2,1,2] 1
q[2,1,3] 0
q[2,1,4] 0
q[2,1,5] 0
q[2,1,6] 0
q[2,1,7] 0
q[2,1,8] 0
q[2,1,9] 0
q[3,0,0] 1
q[3,0,1] 3
q[3,0,2] 0
q[3,0,3] 0
q[3,0,4] 0
q[3,0,5] 0
q[3,0,6] 0
q[3,0,7] 0
q[3,0,8] 0
q[3,0,9] 0
q[3,1,0] 4
q[3,1,1] 1
q[3,1,2] 1
q[3,1,3] 0
q[3,1,4] 0
q[3,1,5] 0
q[3,1,6] 0
q[3,1,7] 0
q[3,1,8] 0
q[3,1,9] 0
q[4,0,0] 1
q[4,0,1] 3
q[4,0,2] 0
q[4,0,3] 0
q[4,0,4] 0
q[4,0,5] 0
q[4,0,6] 0
q[4,0,7] 0
q[4,0,8] 0
q[4,0,9] 0
q[4,1,0] 4
q[4,1,1] 1
q[4,1,2] 1
q[4,1,3] 0
q[4,1,4] 0
q[4,1,5] 0
q[4,1,6] 0
q[4,1,7] 0
q[4,1,8] 0
q[4,1,9] 0
c[0,0,0] 0
c[0,0,1] 2
c[0,0,2] 0
c[0,0,3] 0
c[0,0,4] 0
c[0,0,5] 0
c[0,0,6] 0
c[0,0,7] 0
c[0,0,8] 0
c[0,0,9] 0
c[0,1,0] 0
c[0,1,1] 0
c[0,1,2] 0
c[0,1,3] 0
c[0,1,4] 0
c[0,1,5] 0
c[0,1,6] 0
c[0,1,7] 0
c[0,1,8] 0
c[0,1,9] 0
c[1,0,0] 0
c[1,0,1] 2
c[1,0,2] 0
c[1,0,3] 0
c[1,0,4] 0
c[1,0,5] 0
c[1,0,6] 0
c[1,0,7] 0
c[1,0,8] 0
c[1,0,9] 0
c[1,1,0] 0
c[1,1,1] 0
c[1,1,2] 0
c[1,1,3] 0
c[1,1,4] 0
c[1,1,5] 0
c[1,1,6] 0
c[1,1,7] 0
c[1,1,8] 0
c[1,1,9] 0
c[2,0,0] 0
c[2,0,1] 2
c[2,0,2] 0
c[2,0,3] 0
c[2,0,4] 0
c[2,0,5] 0
c[2,0,6] 0
c[2,0,7] 0
c[2,0,8] 0
c[2,0,9] 0
c[2,1,0] 0
c[2,1,1] 0
c[2,1,2] 0
c[2,1,3] 0
c[2,1,4] 0
c[2,1,5] 0
c[2,1,6] 0
c[2,1,7] 0
c[2,1,8] 0
c[2,1,9] 0
c[3,0,0] 0
c[3,0,1] 2
c[3,0,2] 0
c[3,0,3] 0
c[3,0,4] 0
c[3,0,5] 0
c[3,0,6] 0
c[3,0,7] 0
c[3,0,8] 0
c[3,0,9] 0
c[3,1,0] 0
c[3,1,1] 0
c[3,1,2] 0
c[3,1,3] 0
c[3,1,4] 0
c[3,1,5] 0
c[3,1,6] 0
c[3,1,7] 0
c[3,1,8] 0
c[3,1,9] 0
c[4,0,0] 0
c[4,0,1] 2
c[4,0,2] 0
c[4,0,3] 0
c[4,0,4] 0
c[4,0,5] 0
c[4,0,6] 0
c[4,0,7] 0
c[4,0,8] 0
c[4,0,9] 0
c[4,1,0] 0
c[4,1,1] 0
c[4,1,2] 0
c[4,1,3] 0
c[4,1,4] 0
c[4,1,5] 0
c[4,1,6] 0
c[4,1,7] 0
c[4,1,8] 0
c[4,1,9] 0
